WARNING: for repeatability, setting FPU to use double precision
============================[ Problem Statistics ]=============================
|                                                                             |
|  Number of variables:           100                                         |
|  Number of clauses:             449                                         |
|  Parse time:                   0.00 s                                       |
|  Eliminated clauses:           0.00 Mb                                      |
|  Simplification time:          0.00 s                                       |
|                                                                             |
============================[ Search Statistics ]==============================
| Conflicts |          ORIGINAL         |          LEARNT          | Progress |
|           |    Vars  Clauses Literals |    Limit  Clauses Lit/Cl |          |
===============================================================================
|       100 |      99      448     1348 |      164      100      7 |  0.010 % |
|       250 |      97      439     1321 |      180       99      6 |  2.021 % |
===============================================================================
restarts              : 3
conflicts             : 272            (82952 /sec)
decisions             : 333            (0.00 % random) (101555 /sec)
propagations          : 6491           (1979567 /sec)
conflict literals     : 1528           (24.95 % deleted)
Memory used           : 13.00 MB
CPU time              : 0.003279 s

SATISFIABLE
